NAME: ACTUAL_TOURS/amz0137
TYPE: TOUR
COMMENT: RouteID_0ee4cacb-b18b-41ea-bdd5-d05a09b7c492
DIMENSION: 95
TOUR_SECTION
2
84
29
34
48
95
79
94
65
17
63
55
16
73
15
44
11
91
70
6
58
47
41
82
45
33
27
36
93
28
4
14
12
60
40
13
8
85
19
64
90
59
53
78
46
52
57
77
38
54
10
69
30
56
89
66
26
3
61
81
1
92
7
51
71
18
62
83
74
39
20
25
75
24
37
88
50
35
42
31
43
87
67
72
86
80
21
68
49
22
76
9
32
5
23
-1
EOF
